16 5
77 72 99 50 91
3 3 2 4 4 5 2 4 3 3 1 4 1 5 1 5
18 15 31 12 22
2 7 18 12 3
3 11 21 16 6
9 7 15 10 8
8 5 13 8 4
10 1 9 4 6
13 9 12 9 9
13 8 11 8 11
8 8 16 11 6
4 9 19 13 4
11 4 10 6 8
7 8 17 11 5
12 10 15 11 9
12 7 11 8 10
9 9 17 12 7
9 9 17 12 7
8 5 13 8 4
